c colouring generated by benchmark framework
p edge 128 2113
v 1 8
v 2 10
v 3 0
v 4 6
v 5 5
v 6 7
v 7 25
v 8 20
v 9 3
v 10 22
v 11 9
v 12 9
v 13 0
v 14 13
v 15 5
v 16 6
v 17 0
v 18 9
v 19 17
v 20 23
v 21 4
v 22 2
v 23 12
v 24 25
v 25 31
v 26 10
v 27 10
v 28 5
v 29 7
v 30 26
v 31 11
v 32 10
v 33 2
v 34 3
v 35 4
v 36 3
v 37 3
v 38 30
v 39 14
v 40 12
v 41 6
v 42 7
v 43 22
v 44 10
v 45 16
v 46 1
v 47 4
v 48 1
v 49 2
v 50 8
v 51 2
v 52 4
v 53 29
v 54 11
v 55 15
v 56 10
v 57 14
v 58 27
v 59 5
v 60 16
v 61 18
v 62 6
v 63 3
v 64 9
v 65 0
v 66 9
v 67 3
v 68 0
v 69 17
v 70 5
v 71 14
v 72 9
v 73 23
v 74 3
v 75 13
v 76 1
v 77 0
v 78 9
v 79 7
v 80 0
v 81 6
v 82 8
v 83 21
v 84 1
v 85 4
v 86 0
v 87 7
v 88 2
v 89 6
v 90 4
v 91 8
v 92 3
v 93 20
v 94 24
v 95 2
v 96 8
v 97 1
v 98 1
v 99 18
v 100 19
v 101 12
v 102 5
v 103 2
v 104 1
v 105 21
v 106 3
v 107 15
v 108 12
v 109 6
v 110 13
v 111 2
v 112 2
v 113 19
v 114 15
v 115 14
v 116 28
v 117 16
v 118 11
v 119 5
v 120 7
v 121 5
v 122 4
v 123 7
v 124 8
v 125 18
v 126 12
v 127 11
v 128 11
